c Sudoku solution
p cnf 729 0
123 0
151 0
244 0
276 0
317 0
392 0
425 0
431 0
446 0
542 0
567 0
683 0
758 0
775 0
781 0
812 0
762 0
252 0
147 0
132 0
622 0
637 0
974 0
982 0
472 0
877 0
727 0
957 0
373 0
291 0
287 0
321 0
263 0
911 0
497 0
571 0
524 0
679 0
178 0
926 0
796 0
586 0
616 0
336 0
114 0
384 0
166 0
734 0
215 0
856 0
864 0
841 0
835 0
893 0
661 0
488 0
694 0
595 0
454 0
553 0
655 0
648 0
469 0
413 0
518 0
539 0
719 0
933 0
828 0
743 0
889 0
998 0
229 0
238 0
368 0
359 0
345 0
949 0
965 0
185 0
199 0
